199
0 18 158 79 157 122 81 185 138 106 
168 15 8 175 136 159 67 186 114 34 
39 20 181 174 89 197 123 83 92 55 
130 53 179 188 171 30 11 169 35 178 
90 145 161 37 94 88 86 154 144 153 
26 19 12 24 112 1 6 36 100 142 
148 76 40 120 162 2 9 52 44 113 
151 38 111 91 49 189 118 16 96 48 
129 46 109 78 131 45 93 47 119 51 
137 27 167 21 33 107 160 143 116 95 
172 97 32 126 43 3 180 80 115 149 
101 198 10 108 68 57 133 84 190 195 
73 146 7 194 29 124 140 155 128 85 
141 163 135 104 150 164 62 72 5 65 
177 165 156 74 56 4 132 22 82 28 
102 191 41 58 59 166 170 187 121 63 
152 139 182 31 134 87 71 183 184 60 
125 173 25 192 50 193 17 13 14 127 
77 66 42 117 64 98 70 75 23 61 
103 196 176 147 69 99 110 105 54 
